NAME : ./TSPLIB/ts225.tsp.optbc.tour
TYPE : TOUR
DIMENSION : 225
TOUR_SECTION
119
220
118
117
116
115
114
113
112
111
110
215
214
213
212
211
87
86
85
84
83
206
207
208
209
210
109
108
107
106
105
104
103
102
101
205
204
203
202
201
76
180
179
77
78
79
80
81
82
185
184
183
182
181
56
55
54
53
52
178
177
176
51
155
154
153
152
151
26
27
130
129
128
127
126
1
2
3
4
5
6
7
131
8
9
10
11
12
13
14
15
16
136
137
138
139
140
38
37
36
35
34
33
135
134
133
132
28
29
30
31
32
156
157
158
159
160
57
58
59
60
61
62
186
187
188
189
190
88
89
90
91
92
93
216
217
218
219
98
97
96
95
94
195
194
193
192
191
68
67
66
65
64
63
165
164
163
162
161
39
40
41
42
43
145
144
143
142
141
17
18
19
20
21
22
23
24
25
146
147
148
149
150
50
171
172
49
48
47
46
45
44
166
167
168
169
170
69
70
71
72
73
74
173
174
175
75
196
197
198
199
200
99
100
221
222
223
224
225
125
124
123
122
121
120
-1